1673830
59,46,107,81,51,84,29,20,63,44,79,67,4,21,13,93,106,28,68,8,33,88,105,53,100,15,23,10,77,66,9,45,82,5,35,1,101,98,52,34,83,25,3,90,24,109,64,22,102,58,54,104,97,11,89,47,71,49,91,41,37,26,38,72,57,75,86,27,69,70,31,39,14,12,60,108,76,18,73,42,65,19,50,36,55,40,7,99,62,78,87,96,80,17,48,74,92,56,103,30,6,95,61,43,85,32,94,16,2